(set-logic QF_UF)
(declare-fun A0 () Bool)
(declare-fun A1 () Bool)
(declare-fun A2 () Bool)
(declare-fun A4 () Bool)
(declare-fun A5 () Bool)
(declare-fun A6 () Bool)
(declare-fun A7 () Bool)
(declare-fun A8 () Bool)
(declare-fun A9 () Bool)
(declare-fun A10 () Bool)
(declare-fun A11 () Bool)
(declare-fun A12 () Bool)
(declare-fun A13 () Bool)
(declare-fun A14 () Bool)
(declare-fun A15 () Bool)
(declare-fun A16 () Bool)
(declare-fun A17 () Bool)
(declare-fun A18 () Bool)
(declare-fun A19 () Bool)
(declare-fun A20 () Bool)
(declare-fun A21 () Bool)
(declare-fun A22 () Bool)
(declare-fun A23 () Bool)
(declare-fun A24 () Bool)
(assert (let ((.def_0 (and A21 A14))) (let ((.def_1 (or A0 A8))) (let ((.def_2 (and .def_1 .def_0))) (let ((.def_3 (not .def_2))) (let ((.def_4 (not A11))) (let ((.def_5 (or A15 .def_4))) (let ((.def_6 (not .def_5))) (let ((.def_7 (and A5 A24))) (let ((.def_8 (not .def_7))) (let ((.def_9 (or .def_8 .def_6))) (let ((.def_10 (not .def_9))) (let ((.def_11 (and .def_10 .def_3))) (let ((.def_12 (not .def_11))) (let ((.def_13 (and A13 A2))) (let ((.def_14 (not A7))) (let ((.def_15 (or .def_14 A2))) (let ((.def_16 (or .def_15 .def_13))) (let ((.def_17 (not A4))) (let ((.def_18 (or .def_17 A20))) (let ((.def_19 (not .def_18))) (let ((.def_20 (not A24))) (let ((.def_21 (or .def_20 A16))) (let ((.def_22 (or .def_21 .def_19))) (let ((.def_23 (or .def_22 .def_16))) (let ((.def_24 (and .def_23 .def_12))) (let ((.def_25 (not .def_24))) (let ((.def_26 (or .def_4 A17))) (let ((.def_27 (and .def_4 A15))) (let ((.def_28 (and .def_27 .def_26))) (let ((.def_29 (not A23))) (let ((.def_30 (and A9 .def_29))) (let ((.def_31 (and .def_20 A1))) (let ((.def_32 (not .def_31))) (let ((.def_33 (and .def_32 .def_30))) (let ((.def_34 (not .def_33))) (let ((.def_35 (= .def_34 .def_28))) (let ((.def_36 (not A5))) (let ((.def_37 (or .def_36 A6))) (let ((.def_38 (not .def_37))) (let ((.def_39 (not A16))) (let ((.def_40 (not A20))) (let ((.def_41 (or .def_40 .def_39))) (let ((.def_42 (not .def_41))) (let ((.def_43 (or .def_42 .def_38))) (let ((.def_44 (or A19 A23))) (let ((.def_45 (and A4 .def_20))) (let ((.def_46 (and .def_45 .def_44))) (let ((.def_47 (not .def_46))) (let ((.def_48 (and .def_47 .def_43))) (let ((.def_49 (not .def_48))) (let ((.def_50 (= .def_49 .def_35))) (let ((.def_51 (and .def_50 .def_25))) (let ((.def_52 (not .def_51))) (let ((.def_53 (and A8 A14))) (let ((.def_54 (not A10))) (let ((.def_55 (or A17 .def_54))) (let ((.def_56 (or .def_55 .def_53))) (let ((.def_57 (not A9))) (let ((.def_58 (or A5 .def_57))) (let ((.def_59 (not .def_58))) (let ((.def_60 (or A12 A22))) (let ((.def_61 (not .def_60))) (let ((.def_62 (and .def_61 .def_59))) (let ((.def_63 (not .def_62))) (let ((.def_64 (or .def_63 .def_56))) (let ((.def_65 (or A21 .def_57))) (let ((.def_66 (not A2))) (let ((.def_67 (not A18))) (let ((.def_68 (and .def_67 .def_66))) (let ((.def_69 (not .def_68))) (let ((.def_70 (and .def_69 .def_65))) (let ((.def_71 (and A7 A17))) (let ((.def_72 (or A21 A19))) (let ((.def_73 (or .def_72 .def_71))) (let ((.def_74 (not .def_73))) (let ((.def_75 (or .def_74 .def_70))) (let ((.def_76 (and .def_75 .def_64))) (let ((.def_77 (or .def_29 A14))) (let ((.def_78 (not .def_77))) (let ((.def_79 (not A19))) (let ((.def_80 (or A1 .def_79))) (let ((.def_81 (or .def_80 .def_78))) (let ((.def_82 (not A17))) (let ((.def_83 (and .def_67 .def_82))) (let ((.def_84 (not .def_83))) (let ((.def_85 (= .def_67 A1))) (let ((.def_86 (or .def_85 .def_84))) (let ((.def_87 (not .def_86))) (let ((.def_88 (or .def_87 .def_81))) (let ((.def_89 (or A9 A21))) (let ((.def_90 (not .def_89))) (let ((.def_91 (not A15))) (let ((.def_92 (or A21 .def_91))) (let ((.def_93 (not .def_92))) (let ((.def_94 (or .def_93 .def_90))) (let ((.def_95 (not .def_94))) (let ((.def_96 (and A14 A10))) (let ((.def_97 (or A5 .def_29))) (let ((.def_98 (not .def_97))) (let ((.def_99 (and .def_98 .def_96))) (let ((.def_100 (not .def_99))) (let ((.def_101 (and .def_100 .def_95))) (let ((.def_102 (and .def_101 .def_88))) (let ((.def_103 (not .def_102))) (let ((.def_104 (and .def_103 .def_76))) (let ((.def_105 (or .def_104 .def_52))) .def_105)))))))))))))))))))))))))))))))))))))))))))))))))))))))))))))))))))))))))))))))))))))))))))))))))))))))))))
(check-sat)
